%chk=H2
#P HF/GEN SP pop=full iop(3/33=4) gfinput

Calcul STO-3G pour H2

0 1
 H       0. 0. 0. 
 H       0. 0. 0.7408480952642 

H     0
S    3   1.00
      0.3425250914D+01       0.1543289673D+00
      0.6239137298D+00       0.5353281423D+00
      0.1688554040D+00       0.4446345422D+00
****



